rc2_10_9

VEHICLE
NUMBER   CAPACITY
250     1000

CUSTOMER
CUST NO. XCOORD.  YCOORD.  DEMAND  READY TIME DUE DATE  SERVICE TIME

0   250    250     0     0    7284     0
879 53 204 8 4040 4520 10
919 61 214 4 1187 1667 10
80 34 169 11 1758 2238 10
832 46 163 8 3524 4004 10
995 18 225 8 2585 3065 10
47 41 232 16 641 1121 10
305 111 178 18 386 866 10
313 30 155 9 4942 5422 10
28 80 117 24 3117 3597 10
43 111 192 11 4618 5098 10
510 21 146 21 1767 2247 10
462 43 135 31 707 1187 10
970 13 214 21 5234 5714 10
254 75 118 21 1456 1936 10
425 103 177 28 2326 2806 10
536 105 181 19 5945 6425 10
772 89 185 16 2219 2699 10
614 39 162 18 2081 2561 10
177 7 194 29 3625 4105 10
786 47 208 30 726 1206 10
127 0 188 26 3548 4028 10
566 68 160 21 4363 4843 10
50 86 199 23 931 1411 10
694 31 175 24 806 1286 10
688 57 183 15 4221 4701 10
